NAME: rand_1/map4_180
TYPE: TSP
COMMENT: autogenerated using a wonderful map creator
DIMENSION: 210
EDGE_WEIGHT_TYPE: EUC_2D
NODE_COORD_SECTION
1 69.0 53.0
2 11.0 5.0
3 10.0 10.0
4 13.0 13.0
5 12.0 12.0
6 73.0 44.0
7 24.0 55.0
8 72.0 43.0
9 74.0 37.0
10 70.0 57.0
11 8.0 2.0
12 22.0 12.0
13 11.0 10.0
14 75.0 45.0
15 22.0 3.0
16 68.0 41.0
17 11.0 6.0
18 8.0 5.0
19 14.0 11.0
20 76.0 55.0
21 70.0 43.0
22 77.0 6.0
23 77.0 58.0
24 66.0 45.0
25 8.0 7.0
26 24.0 54.0
27 68.0 51.0
28 5.0 8.0
29 76.0 59.0
30 9.0 4.0
31 67.0 55.0
32 70.0 61.0
33 70.0 40.0
34 26.0 3.0
35 76.0 54.0
36 8.0 8.0
37 22.0 11.0
38 74.0 8.0
39 13.0 9.0
40 18.0 9.0
41 20.0 11.0
42 17.0 10.0
43 29.0 53.0
44 7.0 6.0
45 72.0 61.0
46 66.0 55.0
47 77.0 9.0
48 77.0 63.0
49 20.0 5.0
50 68.0 34.0
51 71.0 51.0
52 28.0 53.0
53 75.0 57.0
54 71.0 58.0
55 70.0 50.0
56 72.0 5.0
57 73.0 46.0
58 76.0 41.0
59 69.0 35.0
60 19.0 10.0
61 38.0 23.0
62 26.0 21.0
63 42.0 39.0
64 41.0 49.0
65 7.0 26.0
66 34.0 19.0
67 70.0 18.0
68 31.0 29.0
69 37.0 24.0
70 56.0 37.0
71 65.0 15.0
72 5.0 28.0
73 66.0 14.0
74 60.0 28.0
75 12.0 43.0
76 6.0 57.0
77 41.0 24.0
78 58.0 40.0
79 9.0 26.0
80 44.0 20.0
81 43.0 30.0
82 59.0 57.0
83 52.0 51.0
84 64.0 25.0
85 42.0 59.0
86 57.0 41.0
87 56.0 21.0
88 45.0 21.0
89 45.0 30.0
90 37.0 26.0
91 63.0 45.0
92 57.0 4.0
93 38.0 55.0
94 51.0 27.0
95 6.0 59.0
96 13.0 19.0
97 53.0 55.0
98 58.0 51.0
99 53.0 9.0
100 18.0 21.0
101 64.0 27.0
102 11.0 55.0
103 69.0 17.0
104 14.0 35.0
105 75.0 21.0
106 52.0 28.0
107 44.0 24.0
108 24.0 21.0
109 43.0 34.0
110 42.0 36.0
111 44.0 33.0
112 73.0 14.0
113 62.0 14.0
114 8.0 43.0
115 54.0 10.0
116 7.0 23.0
117 29.0 20.0
118 54.0 19.0
119 39.0 30.0
120 8.0 61.0
121 56.0 25.0
122 11.0 57.0
123 38.0 41.0
124 48.0 51.0
125 38.0 59.0
126 14.0 37.0
127 41.0 21.0
128 7.0 53.0
129 55.0 38.0
130 61.0 33.0
131 63.0 4.0
132 42.0 29.0
133 10.0 24.0
134 13.0 23.0
135 53.0 59.0
136 8.0 45.0
137 57.0 29.0
138 42.0 47.0
139 11.0 41.0
140 38.0 25.0
141 39.0 41.0
142 23.0 24.0
143 40.0 40.0
144 4.0 20.0
145 13.0 53.0
146 70.0 20.0
147 38.0 52.0
148 60.0 27.0
149 36.0 27.0
150 6.0 56.0
151 36.0 45.0
152 2.0 22.0
153 37.0 53.0
154 10.0 44.0
155 8.0 56.0
156 11.0 52.0
157 52.0 53.0
158 43.0 59.0
159 57.0 58.0
160 67.0 26.0
161 70.0 22.0
162 40.0 51.0
163 36.0 29.0
164 19.0 22.0
165 44.0 21.0
166 53.0 54.0
167 55.0 51.0
168 76.0 28.0
169 56.0 13.0
170 38.0 38.0
171 40.0 35.0
172 61.0 30.0
173 19.0 24.0
174 33.0 23.0
175 9.0 23.0
176 51.0 40.0
177 54.0 18.0
178 60.0 52.0
179 6.0 26.0
180 7.0 25.0
181 52.0 57.0
182 64.0 22.0
183 55.0 19.0
184 74.0 17.0
185 56.0 45.0
186 36.0 42.0
187 12.0 51.0
188 71.0 18.0
189 38.0 24.0
190 53.0 24.0
191 78.0 23.0
192 34.0 20.0
193 34.0 29.0
194 59.0 28.0
195 54.0 41.0
196 39.0 52.0
197 57.0 3.0
198 65.0 16.0
199 8.0 28.0
200 51.0 26.0
201 37.0 43.0
202 2.0 21.0
203 43.0 22.0
204 14.0 50.0
205 57.0 30.0
206 35.0 27.0
207 24.0 27.0
208 9.0 54.0
209 13.0 36.0
210 13.0 45.0
211 55.0 23.0
212 10.0 55.0
213 55.0 41.0
214 9.0 20.0
215 66.0 17.0
216 56.0 58.0
217 14.0 52.0
218 63.0 18.0
219 35.0 29.0
220 49.0 28.0
221 40.0 25.0
222 55.0 7.0
223 13.0 38.0
224 22.0 22.0
225 11.0 56.0
226 54.0 36.0
227 36.0 30.0
228 54.0 45.0
229 40.0 55.0
230 41.0 29.0
231 3.0 54.0
232 38.0 21.0
233 56.0 17.0
234 56.0 26.0
235 70.0 25.0
236 48.0 52.0
237 5.0 26.0
238 40.0 57.0
239 65.0 22.0
240 32.0 28.0
START_DEPOT_SECTION
1
2
3
4
5
6
7
8
9
10
11
12
13
14
15
16
17
18
19
20
21
22
23
24
25
26
27
28
29
30
-1
END_DEPOT_SECTION
31
32
33
34
35
36
37
38
39
40
41
42
43
44
45
46
47
48
49
50
51
52
53
54
55
56
57
58
59
60
-1
EOF
